(set-info :origin "driver benchmark extracted from Microsoft SDV")
(set-logic HORN)
(declare-fun Proc27 (Int Int Int Bool Int) Bool)
(declare-fun Proc24 (Int Int Int Bool Int) Bool)
(declare-fun Proc37 (Int Int Int Bool) Bool)
(declare-fun Proc4 (Int Int Int Bool Int Int) Bool)
(declare-fun Proc3 (Int Int Int Bool Int Int Int Int) Bool)
(declare-fun Proc33 (Int Int Int Bool Int) Bool)
(declare-fun Proc13 (Int Int Int Bool) Bool)
(declare-fun Proc8 (Int Int Int Bool Int Int) Bool)
(declare-fun Proc23 (Int Int Int Bool Int) Bool)
(declare-fun Proc14 (Int Int Int Bool) Bool)
(declare-fun Proc21 (Int Int Int Bool Int) Bool)
(declare-fun Proc34 (Int Int Int Bool) Bool)
(declare-fun Proc22 (Int Int Int Bool Int) Bool)
(declare-fun Proc30 (Int Int Int Bool Int) Bool)
(declare-fun Proc12 (Int Int Int Bool Int Int) Bool)
(declare-fun Proc10 (Int Int Int Bool Int) Bool)
(declare-fun Proc38 (Int Int Int Bool Int Bool Int Int Int) Bool)
(declare-fun Proc36 (Int Int Int Bool Int Int Int Int Int) Bool)
(declare-fun Proc25 (Int Int Int Bool Int) Bool)
(declare-fun Proc18 (Int Int Int Bool Int Int Int Bool Int) Bool)
(declare-fun Proc29 (Int Int Int Bool Int) Bool)
(declare-fun Proc20 (Int Int Int Bool Int) Bool)
(declare-fun Proc16 (Int Int Int Bool Int) Bool)
(declare-fun Proc6 (Int Int Int Bool Int Int Int Int Int Int) Bool)
(declare-fun Proc35 (Int Int Int Bool Int Int) Bool)
(declare-fun Proc31 (Int Int Int Bool Int) Bool)
(declare-fun Proc19 (Int Int Int Bool Int) Bool)
(declare-fun Proc2 (Int Int Int Bool Int Int Int Int Int) Bool)
(declare-fun Proc9 (Int Int Int Bool Int Int Int Int Int) Bool)
(declare-fun Proc17 (Int Int Int Bool Int Int) Bool)
(declare-fun Proc11 (Int Int Int Bool Int Int Int Int Int) Bool)
(declare-fun Proc15 (Int Int Int Bool Int Int) Bool)
(declare-fun Proc26 (Int Int Int Bool Int) Bool)
(declare-fun Proc32 (Int Int Int Bool Int Int) Bool)
(declare-fun Proc28 (Int Int Int Bool Int) Bool)
(declare-fun Proc0 (Int Int Int Bool Int Int) Bool)
(declare-fun Proc5 (Int Int Int Bool Int Int Int Int) Bool)
(declare-fun Proc7 (Int Int Int Bool Int Int Int Int) Bool)
(declare-fun Proc1 (Int Int Int Bool Int Int Int Int) Bool)
(assert (forall ((A Int)
         (B Int)
         (C Int)
         (D Int)
         (E Int)
         (F Int)
         (G Int)
         (H Int)
         (I Int)
         (J Int)
         (K Int)
         (L Int)
         (M Int)
         (N Bool))
  (let ((a!1 (and (not (<= K (+ 4 M))) (not (<= K L))))
        (a!2 (not (and (not (= G 0)) (Proc1 K I H N F E 1 D)))))
  (let ((a!3 (or (not N)
                 (not (= M L))
                 (not a!1)
                 (= J 0)
                 (not (Proc0 K I H N 2 M))
                 (= G 0)
                 a!2
                 (not (and (= C 0) (= B K))))))
    (=> (not a!3) (Proc2 L I H N J A F C B))))))
(assert (forall ((A Int)
         (B Int)
         (C Int)
         (D Int)
         (E Int)
         (F Int)
         (G Int)
         (H Int)
         (I Int)
         (J Int)
         (K Int)
         (L Int)
         (M Int)
         (N Bool))
  (let ((a!1 (not (Proc3 M K J N I H G F)))
        (a!3 (and (not (<= B (+ 1 C))) (not (<= B L)))))
  (let ((a!2 (or (not (= M L)) a!1 (not (and (= E 0) (= D F)))))
        (a!4 (or (not (= C L))
                 (not a!3)
                 (not (and (Proc4 B K J N C A) (= M A)))
                 a!1
                 (not (and (= E 0) (= D F))))))
    (=> (not (or (not N) (and a!2 a!4))) (Proc5 L K J N I H E D))))))
(assert (forall ((A Int)
         (B Int)
         (C Int)
         (D Int)
         (E Int)
         (F Int)
         (G Int)
         (H Int)
         (I Int)
         (J Int)
         (K Int)
         (L Int)
         (M Int)
         (N Bool)
         (O Int)
         (P Int)
         (Q Int)
         (R Int)
         (S Int)
         (T Int)
         (U Int)
         (V Int)
         (W Int)
         (X Int)
         (Y Int)
         (Z Int)
         (A1 Int))
  (let ((a!1 (and (not (<= Y (+ 4 A1))) (not (<= Y Z))))
        (a!2 (or (not (Proc6 Y W V N U X T A1 S R))
                 (not (= Q R))
                 (not (and (= P 259) (= O Q)))))
        (a!3 (or (not (= Q Y)) (not (and (= P 259) (= O Q)))))
        (a!4 (or (not (Proc6 Y W V N M X L A1 K J))
                 (not (= Q J))
                 (not (and (= P 259) (= O Q)))))
        (a!5 (or (not (Proc6 Y W V N I X H A1 G F))
                 (not (= Q F))
                 (not (and (= P 259) (= O Q)))))
        (a!6 (or (not (Proc6 Y W V N E X D A1 C B))
                 (not (= Q B))
                 (not (and (= P 259) (= O Q))))))
  (let ((a!7 (or (not N)
                 (not (= A1 Z))
                 (not a!1)
                 (and (or (= X 0) (and a!2 a!3))
                      (or (= X 0) (and a!4 a!3))
                      (or (= X 0) (and a!5 a!3))
                      (or (= X 0) (and a!6 a!3))))))
    (=> (not a!7) (Proc7 Z W V N A X P O))))))
(assert (forall ((A Int)
         (B Int)
         (C Int)
         (D Int)
         (E Int)
         (F Int)
         (G Int)
         (H Int)
         (N Bool))
  (let ((a!1 (not (or (not N) (not (= H G))))))
    (=> a!1 (Proc1 F E D N C B A H)))))
(assert (forall ((A Int)
         (B Int)
         (C Int)
         (D Int)
         (E Int)
         (F Int)
         (G Int)
         (H Int)
         (I Int)
         (J Int)
         (K Int)
         (N Bool))
  (let ((a!1 (and (not (<= I (+ 1 K))) (not (<= I J)))))
  (let ((a!2 (or (not N)
                 (not (= K J))
                 (not a!1)
                 (not (Proc8 I H G N K F))
                 (not (and (= E I) (= D F))))))
    (=> (not a!2) (Proc9 J H G N C B A E D))))))
(assert (forall ((A Int)
         (B Int)
         (C Int)
         (D Int)
         (E Int)
         (F Int)
         (G Int)
         (H Int)
         (I Int)
         (J Int)
         (K Int)
         (L Int)
         (M Int)
         (N Bool)
         (O Int)
         (P Int))
  (let ((a!1 (and (not (<= K (+ 1 M))) (not (<= K L))))
        (a!4 (or (not (= A 1))
                 (not (and (= H A) (= G B)))
                 (not (and (= F G) (= E H)))))
        (a!5 (or (= A 1)
                 (not (and (= H A) (= G B)))
                 (not (and (= F G) (= E H))))))
  (let ((a!2 (or (not (= O (- 1073741637)))
                 (not (= M L))
                 (not a!1)
                 (not (Proc10 K J I N M))
                 (not (and (= H I) (= G K)))
                 (not (and (= F G) (= E H)))))
        (a!3 (or (<= 0 O)
                 (not (= M L))
                 (not a!1)
                 (not (Proc10 K J I N M))
                 (not (and (= H I) (= G K)))
                 (not (and (= F G) (= E H)))))
        (a!6 (or (not (= M L))
                 (not a!1)
                 (not (Proc10 K J I N M))
                 (not (and (= H I) (= G K)))
                 (not (and (= F G) (= E H)))))
        (a!8 (or (not (= J 0))
                 (not (= M L))
                 (not a!1)
                 (not (Proc10 K J I N M))
                 (not (and (= H I) (= G K)))
                 (not (and (= F G) (= E H))))))
  (let ((a!7 (and (or (not (Proc9 L J I N C P O B A)) (and a!4 a!5)) a!6)))
  (let ((a!9 (or (not (<= 0 O)) (and (or (= J 0) (= D 0) a!7) a!8))))
  (let ((a!10 (and a!2 (or (= O (- 1073741637)) (and a!3 a!9)))))
    (=> (not (or (not N) (= P 0) a!10)) (Proc11 L J I N C P O F E)))))))))
(assert (forall ((A Int) (B Int) (C Int) (D Int) (E Int) (N Bool))
  (let ((a!1 (not (or (not N) (not (= E 1))))))
    (=> a!1 (Proc8 D C B N A E)))))
(assert (forall ((A Int) (B Int) (C Int) (D Int) (N Bool))
  (=> false (Proc10 D C B N A))))
(assert (forall ((A Int) (B Int) (C Int) (D Int) (E Int) (F Int) (G Int) (N Bool))
  (let ((a!1 (and (not (<= E (+ 1 G))) (not (<= E F)))))
  (let ((a!2 (not (or (not N)
                      (not (= G F))
                      (not a!1)
                      (not (Proc10 E D C N G))
                      (not (= B E))))))
    (=> a!2 (Proc12 F D C N A B))))))
(assert (forall ((A Int) (B Int) (C Int) (D Int) (E Int) (F Int) (G Int) (N Bool))
  (let ((a!1 (and (not (<= E (+ 1 G))) (not (<= E F)))))
  (let ((a!2 (not (or (not N)
                      (not (= G F))
                      (not a!1)
                      (not (Proc10 E D C N G))
                      (not (= B E))))))
    (=> a!2 (Proc4 F D C N A B))))))
(assert (forall ((A Int) (B Int) (C Int) (N Bool)) (=> N (Proc13 C B A N))))
(assert (forall ((A Int) (B Int) (C Int) (N Bool)) (=> N (Proc14 C B A N))))
(assert (forall ((A Int) (B Int) (C Int) (D Int) (E Int) (N Bool))
  (let ((a!1 (or (not N) (not (and (= E 0) (= D 0))))))
    (=> (not a!1) (Proc15 C B A N E D)))))
(assert (forall ((A Int)
         (B Int)
         (C Int)
         (D Int)
         (E Int)
         (F Int)
         (G Int)
         (H Int)
         (I Int)
         (J Int)
         (K Int)
         (L Int)
         (M Int)
         (N Bool)
         (O Int)
         (P Int)
         (B1 Bool)
         (C1 Bool)
         (D1 Bool))
  (let ((a!1 (not (and (not (<= P 0)) (Proc16 P O M D1 L))))
        (a!2 (not (and (= E G) (= D K) (= C H) (= B1 C1) (= B I)))))
  (let ((a!3 (or (= H 0) (not (and (= G F) (not C1))) a!2))
        (a!4 (or (not (and (= H 0) (= N D1))) (not (and (= G A) (= C1 N))) a!2)))
  (let ((a!5 (and (or (= H 1) (and a!3 a!4)) (or (not (= H 1)) (and a!3 a!4)))))
  (let ((a!6 (not (or (not D1)
                      a!1
                      (not (Proc15 L O M D1 K J))
                      (not (Proc14 L K J D1))
                      (not (Proc13 L K J D1))
                      (not (Proc17 L K J D1 I H))
                      a!5))))
    (=> a!6 (Proc18 P O M D1 E D C B1 B))))))))
(assert (forall ((A Int) (B Int) (C Int) (D Int) (N Bool))
  (let ((a!1 (not (or (not N) (not (= D 1))))))
    (=> a!1 (Proc19 C B A N D)))))
(assert (forall ((A Int) (B Int) (C Int) (D Int) (N Bool))
  (let ((a!1 (not (or (not N) (not (= D 0))))))
    (=> a!1 (Proc20 C B A N D)))))
(assert (forall ((A Int) (B Int) (C Int) (D Int) (N Bool))
  (let ((a!1 (not (or (not N) (not (= D 1))))))
    (=> a!1 (Proc21 C B A N D)))))
(assert (forall ((A Int) (B Int) (C Int) (D Int) (N Bool))
  (let ((a!1 (not (or (not N) (not (= D 0))))))
    (=> a!1 (Proc22 C B A N D)))))
(assert (forall ((A Int) (B Int) (C Int) (D Int) (N Bool))
  (let ((a!1 (not (or (not N) (not (= D 1))))))
    (=> a!1 (Proc23 C B A N D)))))
(assert (forall ((A Int) (B Int) (C Int) (D Int) (N Bool))
  (let ((a!1 (not (or (not N) (not (= D 1))))))
    (=> a!1 (Proc24 C B A N D)))))
(assert (forall ((A Int) (B Int) (C Int) (D Int) (N Bool))
  (let ((a!1 (not (or (not N) (not (= D 1))))))
    (=> a!1 (Proc25 C B A N D)))))
(assert (forall ((A Int) (B Int) (C Int) (D Int) (N Bool))
  (let ((a!1 (not (or (not N) (not (= D 1))))))
    (=> a!1 (Proc26 C B A N D)))))
(assert (forall ((A Int) (B Int) (C Int) (D Int) (N Bool))
  (let ((a!1 (not (or (not N) (not (= D 1))))))
    (=> a!1 (Proc27 C B A N D)))))
(assert (forall ((A Int) (B Int) (C Int) (D Int) (N Bool))
  (let ((a!1 (not (or (not N) (not (= D 0))))))
    (=> a!1 (Proc28 C B A N D)))))
(assert (forall ((A Int) (B Int) (C Int) (D Int) (N Bool))
  (let ((a!1 (not (or (not N) (not (= D 0))))))
    (=> a!1 (Proc29 C B A N D)))))
(assert (forall ((A Int) (B Int) (C Int) (D Int) (E Int) (N Bool))
  (let ((a!1 (or (not N) (not (= E (- 1073741823))) (not (= D E)))))
    (=> (not a!1) (Proc30 C B A N D)))))
(assert (forall ((A Int)
         (B Int)
         (C Int)
         (D Int)
         (E Int)
         (F Int)
         (G Int)
         (H Int)
         (I Int)
         (J Int)
         (K Int)
         (L Int)
         (M Int)
         (N Bool))
  (let ((a!1 (not (Proc7 M K J N I H G F)))
        (a!3 (and (not (<= B (+ 1 C))) (not (<= B L)))))
  (let ((a!2 (or (not (= M L)) a!1 (not (and (= E G) (= D F)))))
        (a!4 (or (not (= C L))
                 (not a!3)
                 (not (and (Proc12 B K J N C A) (= M A)))
                 a!1
                 (not (and (= E G) (= D F))))))
    (=> (not (or (not N) (and a!2 a!4))) (Proc3 L K J N I H E D))))))
(assert (forall ((A Int) (B Int) (C Int) (D Int) (N Bool))
  (let ((a!1 (not (or (not N) (not (= D 1))))))
    (=> a!1 (Proc31 C B A N D)))))
(assert (forall ((A Int)
         (B Int)
         (C Int)
         (D Int)
         (E Int)
         (F Int)
         (G Int)
         (H Int)
         (I Int)
         (N Bool))
  (let ((a!1 (and (or (not (= I H)) (not (= G I)))
                  (or (not (= I F)) (not (= G I)))
                  (or (not (= I E)) (not (= G I))))))
    (=> (not (or (not N) a!1)) (Proc32 D C B N A G)))))
(assert (forall ((A Int) (B Int) (C Int) (D Int) (E Int) (N Bool))
  (=> (not (or (not N) (= E 0))) (Proc0 D C B N A E))))
(assert (forall ((A Int)
         (B Int)
         (C Int)
         (D Int)
         (E Int)
         (F Int)
         (G Int)
         (H Int)
         (I Int)
         (J Int)
         (K Int)
         (L Int)
         (M Int)
         (N Bool)
         (O Int)
         (P Int)
         (Q Int)
         (R Int)
         (S Int)
         (T Int)
         (U Int)
         (V Int)
         (W Int)
         (X Int)
         (Y Int)
         (Z Int)
         (A1 Int)
         (E1 Int)
         (F1 Int)
         (G1 Int))
  (let ((a!1 (not (and (= R S) (= Q U) (= P T))))
        (a!3 (not (Proc5 F1 E1 A1 N J G1 I H)))
        (a!5 (and (not (<= F (+ 1 G))) (not (<= F H))))
        (a!7 (not (and (not (= D 1)) (= X D) (= W E) (= V I)))))
  (let ((a!2 (or (not (Proc30 F1 E1 A1 N Y))
                 (not (= X A1))
                 (not (and (= W F1) (= V Y)))
                 (not (Proc35 W E1 X N V G1))
                 (= G1 0)
                 (not (= U W))
                 (not (and (= T X) (= S V)))
                 a!1))
        (a!4 (or (not (= X A1))
                 (not (and (= W H) (= V I)))
                 (not (Proc35 W E1 X N V G1))
                 (= G1 0)
                 (not (= U W))
                 (not (and (= T X) (= S V)))
                 a!1))
        (a!6 (or (not (and (= D 1) (= U E) (= T D) (= S C))) a!1))
        (a!8 (or a!7
                 (not (Proc35 W E1 X N V G1))
                 (= G1 0)
                 (not (= U W))
                 (not (and (= T X) (= S V)))
                 a!1)))
  (let ((a!9 (and a!4
                  (or (not (= G H))
                      (not a!5)
                      (not (Proc11 F E1 A1 N G G1 I E D))
                      (and a!6 a!8)))))
  (let ((a!10 (and (or (= Z 0)
                       (not (= O 1))
                       (= O 0)
                       (not (= M 1))
                       (= M 0)
                       (not (= L 1))
                       (= L 0)
                       (not (= K 1))
                       (= K 0)
                       a!3
                       a!9)
                   (or (not (= B 1))
                       (= B 0)
                       (= Z 0)
                       (not (= O 1))
                       (= O 0)
                       (not (= M 1))
                       (= M 0)
                       (not (= L 1))
                       (= L 0)
                       (not (= K 1))
                       (= K 0)
                       a!3
                       a!9))))
  (let ((a!11 (and (or (= Z 0) a!10) (or (not (= A 1)) (= A 0) (= Z 0) a!10))))
  (let ((a!12 (or (not N)
                  (= G1 0)
                  (not (Proc33 F1 E1 A1 N G1))
                  (= Z 0)
                  (not (Proc34 F1 E1 A1 N))
                  (and a!2 (or (= Z 0) a!11)))))
    (=> (not a!12) (Proc36 F1 E1 A1 N J G1 R Q P))))))))))
(assert (forall ((A Int)
         (B Int)
         (C Int)
         (D Int)
         (E Int)
         (F Int)
         (G Int)
         (H Int)
         (I Int)
         (J Int)
         (K Int)
         (L Int)
         (M Int)
         (N Bool)
         (O Int))
  (let ((a!1 (or (not (and (= I O) (= H 0))) (not (and (= G H) (= F I)))))
        (a!2 (or (not (Proc2 O M L N E K D C B))
                 (= A 0)
                 (not (and (= I B) (= H C)))
                 (not (and (= G H) (= F I))))))
  (let ((a!3 (not (or (not N) (not (Proc32 O M L N K J)) (= J 0) (and a!1 a!2)))))
    (=> a!3 (Proc6 O M L N E K D A G F))))))
(assert (forall ((A Int) (B Int) (C Int) (D Int) (N Bool))
  (=> (not (or (not N) (= D 0))) (Proc33 C B A N D))))
(assert (forall ((A Int)
         (B Int)
         (C Int)
         (D Int)
         (E Int)
         (F Int)
         (G Int)
         (H Int)
         (I Int)
         (J Int)
         (K Int)
         (L Int)
         (M Int)
         (N Bool)
         (O Int)
         (P Int)
         (Q Int)
         (R Int)
         (S Int)
         (T Int)
         (U Int)
         (V Int)
         (W Int)
         (X Int)
         (Y Int))
  (let ((a!1 (or (not (and (= I Y) (= H W))) (not (and (= G I) (= F H)))))
        (a!2 (or (not (= A 1))
                 (not (and (= I B) (= H A)))
                 (not (and (= G I) (= F H)))))
        (a!3 (or (= A 1)
                 (not (and (= I B) (= H A)))
                 (not (and (= G I) (= F H)))))
        (a!4 (or (not (= V 0))
                 (not (and (= I Y) (= H W)))
                 (not (and (= G I) (= F H))))))
  (let ((a!5 (and a!1
                  (or (= V 0)
                      (not (Proc37 Y X W N))
                      (not (Proc36 Y X W N E D C B A))
                      (and a!2 a!3))
                  a!4)))
  (let ((a!6 (not (or (not N)
                      (not (Proc21 Y X W N V))
                      (not (Proc28 Y X W N U))
                      (not (Proc22 Y X W N T))
                      (not (Proc27 Y X W N S))
                      (not (Proc20 Y X W N R))
                      (not (Proc24 Y X W N Q))
                      (not (Proc31 Y X W N P))
                      (not (Proc29 Y X W N O))
                      (not (Proc19 Y X W N M))
                      (not (Proc25 Y X W N L))
                      (not (Proc26 Y X W N K))
                      (not (Proc23 Y X W N J))
                      a!5))))
    (=> a!6 (Proc17 Y X W N G F)))))))
(assert (forall ((A Int) (B Int) (C Int) (N Bool)) (=> N (Proc34 C B A N))))
(assert (forall ((A Int) (B Int) (C Int) (D Int) (E Int) (N Bool))
  (=> N (Proc35 E D C N B A))))
(assert (forall ((A Int) (B Int) (C Int) (N Bool)) (=> N (Proc37 C B A N))))
(assert (forall ((A Int)
         (B Int)
         (C Int)
         (D Int)
         (E Int)
         (F Int)
         (G Int)
         (H Int)
         (I Int)
         (J Int)
         (K Int)
         (L Int)
         (M Int)
         (N Bool)
         (O Int)
         (P Int)
         (Q Int)
         (R Int)
         (S Int)
         (T Int)
         (U Int)
         (V Int)
         (W Int)
         (X Int)
         (Y Int)
         (Z Int)
         (A1 Int)
         (E1 Int)
         (F1 Int)
         (G1 Int)
         (H1 Int)
         (I1 Int)
         (J1 Int)
         (K1 Int)
         (L1 Int)
         (M1 Int)
         (N1 Int)
         (O1 Int)
         (P1 Int)
         (Q1 Int)
         (R1 Int)
         (S1 Int)
         (T1 Int)
         (U1 Int)
         (V1 Int)
         (W1 Int)
         (X1 Int)
         (Y1 Int)
         (Z1 Int)
         (A2 Int)
         (B2 Int)
         (C2 Int)
         (D2 Int)
         (E2 Int)
         (F2 Int)
         (G2 Int)
         (H2 Int))
  (let ((a!1 (and (= H2 G2) (not (<= F2 (+ 240 H2)))))
        (a!2 (and (not (<= F2 G2))
                  (= E2 F2)
                  (not (<= D2 (+ 4 E2)))
                  (not (<= D2 F2))))
        (a!3 (and (= C2 D2)
                  (not (<= B2 (+ 332 C2)))
                  (not (<= B2 D2))
                  (= A2 B2)
                  (not (<= Z1 (+ 4 A2)))
                  (not (<= Z1 B2))
                  (= Y1 Z1)
                  (not (<= X1 (+ 536 Y1)))))
        (a!4 (and (not (<= X1 Z1))
                  (= W1 X1)
                  (not (<= V1 (+ 240 W1)))
                  (not (<= V1 X1))
                  (= U1 V1)
                  (not (<= T1 (+ 240 U1)))
                  (not (<= T1 V1))
                  (= S1 T1)
                  (not (<= R1 (+ 536 S1)))
                  (not (<= R1 T1))
                  (= Q1 R1)
                  (not (<= P1 (+ 240 Q1)))
                  (not (<= P1 R1))
                  (= O1 P1)
                  (not (<= N1 (+ 4 O1)))
                  (not (<= N1 P1))
                  (= M1 N1)
                  (not (<= L1 (+ 536 M1)))
                  (not (<= L1 N1))
                  (= K1 L1)
                  (not (<= J1 (+ 332 K1)))
                  (not (<= J1 L1))
                  (= I1 J1)
                  (not (<= H1 (+ 240 I1)))
                  (not (<= H1 J1))
                  (= G1 H1)
                  (not (<= F1 (+ 240 G1)))
                  (not (<= F1 H1))
                  (= E1 F1)
                  (not (<= A1 (+ 332 E1)))
                  (not (<= A1 F1))
                  (= Z A1)
                  (not (<= Y (+ 4 Z)))
                  (not (<= Y A1))
                  (= X Y)
                  (not (<= W (+ 536 X)))
                  (not (<= W Y))
                  (= V W)
                  (not (<= U (+ 240 V)))
                  (not (<= U W))
                  (= T U)
                  (not (<= S (+ 240 T)))
                  (not (<= S U))
                  (= R S)
                  (not (<= Q (+ 240 R)))
                  (not (<= Q S))
                  (= P Q)
                  (not (<= O (+ 240 P)))
                  (not (<= O Q))
                  (= M O)
                  (not (<= L (+ 240 M)))
                  (not (<= L O))
                  (= K L)
                  (not (<= J (+ 40 K)))
                  (not (<= J L))
                  (= I J)
                  (not (<= H (+ 332 I)))
                  (not (<= H J))
                  (= G H)
                  (not (<= F (+ 4 G)))
                  (not (<= F H))
                  (= E F)
                  (not (<= D (+ 40 E)))
                  (not (<= D F)))))
  (let ((a!5 (not (or (not N)
                      (not a!1)
                      (not a!2)
                      (not a!3)
                      (not a!4)
                      (not (= C D))))))
    (=> a!5 (Proc16 G2 B A N C))))))
(assert (forall ((A Int)
         (B Int)
         (C Int)
         (D Int)
         (E Int)
         (F Int)
         (G Int)
         (H Int)
         (I Int)
         (J Int)
         (K Int)
         (N Bool)
         (B1 Bool)
         (C1 Bool))
  (let ((a!1 (or (not C1) (not (and (Proc18 K J I true H G F B1 E) (not B1))))))
    (=> (not a!1) (Proc38 K J I C1 D N C B A)))))
(assert (let ((a!1 (exists ((V0 Int)
                    (V1 Int)
                    (V2 Int)
                    (V3 Bool)
                    (V4 Int)
                    (V5 Bool)
                    (V6 Int)
                    (V7 Int)
                    (V8 Int))
             (not (=> (and (Proc38 V0 V1 V2 V3 V4 V5 V6 V7 V8) (not false))
                      false)))))
  (not a!1)))

(check-sat)
